p cnf 125 801
1 2 3 4 5  0
6 7 8 9 10  0
11 12 13 14 15  0
16 17 18 19 20  0
21 22 23 24 25  0
26 27 28 29 30  0
31 32 33 34 35  0
36 37 38 39 40  0
41 42 43 44 45  0
46 47 48 49 50  0
51 52 53 54 55  0
56 57 58 59 60  0
61 62 63 64 65  0
66 67 68 69 70  0
71 72 73 74 75  0
76 77 78 79 80  0
81 82 83 84 85  0
86 87 88 89 90  0
91 92 93 94 95  0
96 97 98 99 100  0
101 102 103 104 105  0
106 107 108 109 110  0
111 112 113 114 115  0
116 117 118 119 120  0
121 122 123 124 125  0
1 6 11 16 21 0
2 7 12 17 22 0
3 8 13 18 23 0
4 9 14 19 24 0
5 10 15 20 25 0
26 31 36 41 46 0
27 32 37 42 47 0
28 33 38 43 48 0
29 34 39 44 49 0
30 35 40 45 50 0
51 56 61 66 71 0
52 57 62 67 72 0
53 58 63 68 73 0
54 59 64 69 74 0
55 60 65 70 75 0
76 81 86 91 96 0
77 82 87 92 97 0
78 83 88 93 98 0
79 84 89 94 99 0
80 85 90 95 100 0
101 106 111 116 121 0
102 107 112 117 122 0
103 108 113 118 123 0
104 109 114 119 124 0
105 110 115 120 125 0
-1 -26 0
-1 -51 0
-1 -76 0
-1 -101 0
-26 -51 0
-26 -76 0
-26 -101 0
-51 -76 0
-51 -101 0
-76 -101 0
-2 -27 0
-2 -52 0
-2 -77 0
-2 -102 0
-27 -52 0
-27 -77 0
-27 -102 0
-52 -77 0
-52 -102 0
-77 -102 0
-3 -28 0
-3 -53 0
-3 -78 0
-3 -103 0
-28 -53 0
-28 -78 0
-28 -103 0
-53 -78 0
-53 -103 0
-78 -103 0
-4 -29 0
-4 -54 0
-4 -79 0
-4 -104 0
-29 -54 0
-29 -79 0
-29 -104 0
-54 -79 0
-54 -104 0
-79 -104 0
-5 -30 0
-5 -55 0
-5 -80 0
-5 -105 0
-30 -55 0
-30 -80 0
-30 -105 0
-55 -80 0
-55 -105 0
-80 -105 0
-6 -31 0
-6 -56 0
-6 -81 0
-6 -106 0
-31 -56 0
-31 -81 0
-31 -106 0
-56 -81 0
-56 -106 0
-81 -106 0
-7 -32 0
-7 -57 0
-7 -82 0
-7 -107 0
-32 -57 0
-32 -82 0
-32 -107 0
-57 -82 0
-57 -107 0
-82 -107 0
-8 -33 0
-8 -58 0
-8 -83 0
-8 -108 0
-33 -58 0
-33 -83 0
-33 -108 0
-58 -83 0
-58 -108 0
-83 -108 0
-9 -34 0
-9 -59 0
-9 -84 0
-9 -109 0
-34 -59 0
-34 -84 0
-34 -109 0
-59 -84 0
-59 -109 0
-84 -109 0
-10 -35 0
-10 -60 0
-10 -85 0
-10 -110 0
-35 -60 0
-35 -85 0
-35 -110 0
-60 -85 0
-60 -110 0
-85 -110 0
-11 -36 0
-11 -61 0
-11 -86 0
-11 -111 0
-36 -61 0
-36 -86 0
-36 -111 0
-61 -86 0
-61 -111 0
-86 -111 0
-12 -37 0
-12 -62 0
-12 -87 0
-12 -112 0
-37 -62 0
-37 -87 0
-37 -112 0
-62 -87 0
-62 -112 0
-87 -112 0
-13 -38 0
-13 -63 0
-13 -88 0
-13 -113 0
-38 -63 0
-38 -88 0
-38 -113 0
-63 -88 0
-63 -113 0
-88 -113 0
-14 -39 0
-14 -64 0
-14 -89 0
-14 -114 0
-39 -64 0
-39 -89 0
-39 -114 0
-64 -89 0
-64 -114 0
-89 -114 0
-15 -40 0
-15 -65 0
-15 -90 0
-15 -115 0
-40 -65 0
-40 -90 0
-40 -115 0
-65 -90 0
-65 -115 0
-90 -115 0
-16 -41 0
-16 -66 0
-16 -91 0
-16 -116 0
-41 -66 0
-41 -91 0
-41 -116 0
-66 -91 0
-66 -116 0
-91 -116 0
-17 -42 0
-17 -67 0
-17 -92 0
-17 -117 0
-42 -67 0
-42 -92 0
-42 -117 0
-67 -92 0
-67 -117 0
-92 -117 0
-18 -43 0
-18 -68 0
-18 -93 0
-18 -118 0
-43 -68 0
-43 -93 0
-43 -118 0
-68 -93 0
-68 -118 0
-93 -118 0
-19 -44 0
-19 -69 0
-19 -94 0
-19 -119 0
-44 -69 0
-44 -94 0
-44 -119 0
-69 -94 0
-69 -119 0
-94 -119 0
-20 -45 0
-20 -70 0
-20 -95 0
-20 -120 0
-45 -70 0
-45 -95 0
-45 -120 0
-70 -95 0
-70 -120 0
-95 -120 0
-21 -46 0
-21 -71 0
-21 -96 0
-21 -121 0
-46 -71 0
-46 -96 0
-46 -121 0
-71 -96 0
-71 -121 0
-96 -121 0
-22 -47 0
-22 -72 0
-22 -97 0
-22 -122 0
-47 -72 0
-47 -97 0
-47 -122 0
-72 -97 0
-72 -122 0
-97 -122 0
-23 -48 0
-23 -73 0
-23 -98 0
-23 -123 0
-48 -73 0
-48 -98 0
-48 -123 0
-73 -98 0
-73 -123 0
-98 -123 0
-24 -49 0
-24 -74 0
-24 -99 0
-24 -124 0
-49 -74 0
-49 -99 0
-49 -124 0
-74 -99 0
-74 -124 0
-99 -124 0
-25 -50 0
-25 -75 0
-25 -100 0
-25 -125 0
-50 -75 0
-50 -100 0
-50 -125 0
-75 -100 0
-75 -125 0
-100 -125 0
-2 -1 0
-3 -1 0
-4 -1 0
-5 -1 0
-3 -2 0
-4 -2 0
-5 -2 0
-4 -3 0
-5 -3 0
-5 -4 0
-7 -6 0
-8 -6 0
-9 -6 0
-10 -6 0
-8 -7 0
-9 -7 0
-10 -7 0
-9 -8 0
-10 -8 0
-10 -9 0
-12 -11 0
-13 -11 0
-14 -11 0
-15 -11 0
-13 -12 0
-14 -12 0
-15 -12 0
-14 -13 0
-15 -13 0
-15 -14 0
-17 -16 0
-18 -16 0
-19 -16 0
-20 -16 0
-18 -17 0
-19 -17 0
-20 -17 0
-19 -18 0
-20 -18 0
-20 -19 0
-22 -21 0
-23 -21 0
-24 -21 0
-25 -21 0
-23 -22 0
-24 -22 0
-25 -22 0
-24 -23 0
-25 -23 0
-25 -24 0
-27 -26 0
-28 -26 0
-29 -26 0
-30 -26 0
-28 -27 0
-29 -27 0
-30 -27 0
-29 -28 0
-30 -28 0
-30 -29 0
-32 -31 0
-33 -31 0
-34 -31 0
-35 -31 0
-33 -32 0
-34 -32 0
-35 -32 0
-34 -33 0
-35 -33 0
-35 -34 0
-37 -36 0
-38 -36 0
-39 -36 0
-40 -36 0
-38 -37 0
-39 -37 0
-40 -37 0
-39 -38 0
-40 -38 0
-40 -39 0
-42 -41 0
-43 -41 0
-44 -41 0
-45 -41 0
-43 -42 0
-44 -42 0
-45 -42 0
-44 -43 0
-45 -43 0
-45 -44 0
-47 -46 0
-48 -46 0
-49 -46 0
-50 -46 0
-48 -47 0
-49 -47 0
-50 -47 0
-49 -48 0
-50 -48 0
-50 -49 0
-52 -51 0
-53 -51 0
-54 -51 0
-55 -51 0
-53 -52 0
-54 -52 0
-55 -52 0
-54 -53 0
-55 -53 0
-55 -54 0
-57 -56 0
-58 -56 0
-59 -56 0
-60 -56 0
-58 -57 0
-59 -57 0
-60 -57 0
-59 -58 0
-60 -58 0
-60 -59 0
-62 -61 0
-63 -61 0
-64 -61 0
-65 -61 0
-63 -62 0
-64 -62 0
-65 -62 0
-64 -63 0
-65 -63 0
-65 -64 0
-67 -66 0
-68 -66 0
-69 -66 0
-70 -66 0
-68 -67 0
-69 -67 0
-70 -67 0
-69 -68 0
-70 -68 0
-70 -69 0
-72 -71 0
-73 -71 0
-74 -71 0
-75 -71 0
-73 -72 0
-74 -72 0
-75 -72 0
-74 -73 0
-75 -73 0
-75 -74 0
-77 -76 0
-78 -76 0
-79 -76 0
-80 -76 0
-78 -77 0
-79 -77 0
-80 -77 0
-79 -78 0
-80 -78 0
-80 -79 0
-82 -81 0
-83 -81 0
-84 -81 0
-85 -81 0
-83 -82 0
-84 -82 0
-85 -82 0
-84 -83 0
-85 -83 0
-85 -84 0
-87 -86 0
-88 -86 0
-89 -86 0
-90 -86 0
-88 -87 0
-89 -87 0
-90 -87 0
-89 -88 0
-90 -88 0
-90 -89 0
-92 -91 0
-93 -91 0
-94 -91 0
-95 -91 0
-93 -92 0
-94 -92 0
-95 -92 0
-94 -93 0
-95 -93 0
-95 -94 0
-97 -96 0
-98 -96 0
-99 -96 0
-100 -96 0
-98 -97 0
-99 -97 0
-100 -97 0
-99 -98 0
-100 -98 0
-100 -99 0
-102 -101 0
-103 -101 0
-104 -101 0
-105 -101 0
-103 -102 0
-104 -102 0
-105 -102 0
-104 -103 0
-105 -103 0
-105 -104 0
-107 -106 0
-108 -106 0
-109 -106 0
-110 -106 0
-108 -107 0
-109 -107 0
-110 -107 0
-109 -108 0
-110 -108 0
-110 -109 0
-112 -111 0
-113 -111 0
-114 -111 0
-115 -111 0
-113 -112 0
-114 -112 0
-115 -112 0
-114 -113 0
-115 -113 0
-115 -114 0
-117 -116 0
-118 -116 0
-119 -116 0
-120 -116 0
-118 -117 0
-119 -117 0
-120 -117 0
-119 -118 0
-120 -118 0
-120 -119 0
-122 -121 0
-123 -121 0
-124 -121 0
-125 -121 0
-123 -122 0
-124 -122 0
-125 -122 0
-124 -123 0
-125 -123 0
-125 -124 0
-6 -1 0
-11 -1 0
-16 -1 0
-21 -1 0
-11 -6 0
-16 -6 0
-21 -6 0
-16 -11 0
-21 -11 0
-21 -16 0
-7 -2 0
-12 -2 0
-17 -2 0
-22 -2 0
-12 -7 0
-17 -7 0
-22 -7 0
-17 -12 0
-22 -12 0
-22 -17 0
-8 -3 0
-13 -3 0
-18 -3 0
-23 -3 0
-13 -8 0
-18 -8 0
-23 -8 0
-18 -13 0
-23 -13 0
-23 -18 0
-9 -4 0
-14 -4 0
-19 -4 0
-24 -4 0
-14 -9 0
-19 -9 0
-24 -9 0
-19 -14 0
-24 -14 0
-24 -19 0
-10 -5 0
-15 -5 0
-20 -5 0
-25 -5 0
-15 -10 0
-20 -10 0
-25 -10 0
-20 -15 0
-25 -15 0
-25 -20 0
-31 -26 0
-36 -26 0
-41 -26 0
-46 -26 0
-36 -31 0
-41 -31 0
-46 -31 0
-41 -36 0
-46 -36 0
-46 -41 0
-32 -27 0
-37 -27 0
-42 -27 0
-47 -27 0
-37 -32 0
-42 -32 0
-47 -32 0
-42 -37 0
-47 -37 0
-47 -42 0
-33 -28 0
-38 -28 0
-43 -28 0
-48 -28 0
-38 -33 0
-43 -33 0
-48 -33 0
-43 -38 0
-48 -38 0
-48 -43 0
-34 -29 0
-39 -29 0
-44 -29 0
-49 -29 0
-39 -34 0
-44 -34 0
-49 -34 0
-44 -39 0
-49 -39 0
-49 -44 0
-35 -30 0
-40 -30 0
-45 -30 0
-50 -30 0
-40 -35 0
-45 -35 0
-50 -35 0
-45 -40 0
-50 -40 0
-50 -45 0
-56 -51 0
-61 -51 0
-66 -51 0
-71 -51 0
-61 -56 0
-66 -56 0
-71 -56 0
-66 -61 0
-71 -61 0
-71 -66 0
-57 -52 0
-62 -52 0
-67 -52 0
-72 -52 0
-62 -57 0
-67 -57 0
-72 -57 0
-67 -62 0
-72 -62 0
-72 -67 0
-58 -53 0
-63 -53 0
-68 -53 0
-73 -53 0
-63 -58 0
-68 -58 0
-73 -58 0
-68 -63 0
-73 -63 0
-73 -68 0
-59 -54 0
-64 -54 0
-69 -54 0
-74 -54 0
-64 -59 0
-69 -59 0
-74 -59 0
-69 -64 0
-74 -64 0
-74 -69 0
-60 -55 0
-65 -55 0
-70 -55 0
-75 -55 0
-65 -60 0
-70 -60 0
-75 -60 0
-70 -65 0
-75 -65 0
-75 -70 0
-81 -76 0
-86 -76 0
-91 -76 0
-96 -76 0
-86 -81 0
-91 -81 0
-96 -81 0
-91 -86 0
-96 -86 0
-96 -91 0
-82 -77 0
-87 -77 0
-92 -77 0
-97 -77 0
-87 -82 0
-92 -82 0
-97 -82 0
-92 -87 0
-97 -87 0
-97 -92 0
-83 -78 0
-88 -78 0
-93 -78 0
-98 -78 0
-88 -83 0
-93 -83 0
-98 -83 0
-93 -88 0
-98 -88 0
-98 -93 0
-84 -79 0
-89 -79 0
-94 -79 0
-99 -79 0
-89 -84 0
-94 -84 0
-99 -84 0
-94 -89 0
-99 -89 0
-99 -94 0
-85 -80 0
-90 -80 0
-95 -80 0
-100 -80 0
-90 -85 0
-95 -85 0
-100 -85 0
-95 -90 0
-100 -90 0
-100 -95 0
-106 -101 0
-111 -101 0
-116 -101 0
-121 -101 0
-111 -106 0
-116 -106 0
-121 -106 0
-116 -111 0
-121 -111 0
-121 -116 0
-107 -102 0
-112 -102 0
-117 -102 0
-122 -102 0
-112 -107 0
-117 -107 0
-122 -107 0
-117 -112 0
-122 -112 0
-122 -117 0
-108 -103 0
-113 -103 0
-118 -103 0
-123 -103 0
-113 -108 0
-118 -108 0
-123 -108 0
-118 -113 0
-123 -113 0
-123 -118 0
-109 -104 0
-114 -104 0
-119 -104 0
-124 -104 0
-114 -109 0
-119 -109 0
-124 -109 0
-119 -114 0
-124 -114 0
-124 -119 0
-110 -105 0
-115 -105 0
-120 -105 0
-125 -105 0
-115 -110 0
-120 -110 0
-125 -110 0
-120 -115 0
-125 -115 0
-125 -120 0
60 0
